-97.0 8.0 0.0 4.0 4.0 10.0 1.0 8.0 9.0 6.0 3.0 7.0 4.0 5.0 9.0 1.0 5.0 10.0 1.0 2.0 
8.0 -72.0 5.0 6.0 3.0 1.0 2.0 8.0 1.0 7.0 4.0 1.0 4.0 4.0 2.0 7.0 1.0 6.0 2.0 0.0 
0.0 5.0 -74.0 6.0 4.0 2.0 4.0 6.0 9.0 0.0 8.0 1.0 5.0 0.0 6.0 6.0 0.0 7.0 3.0 2.0 
4.0 6.0 6.0 -92.0 7.0 1.0 6.0 4.0 9.0 7.0 4.0 4.0 7.0 4.0 0.0 3.0 1.0 7.0 4.0 8.0 
4.0 3.0 4.0 7.0 -104.0 10.0 10.0 2.0 9.0 4.0 4.0 10.0 5.0 4.0 3.0 7.0 6.0 4.0 1.0 7.0 
10.0 1.0 2.0 1.0 10.0 -86.0 1.0 1.0 2.0 6.0 5.0 7.0 4.0 4.0 8.0 9.0 0.0 7.0 0.0 8.0 
1.0 2.0 4.0 6.0 10.0 1.0 -84.0 5.0 8.0 3.0 2.0 8.0 5.0 10.0 0.0 0.0 2.0 9.0 2.0 6.0 
8.0 8.0 6.0 4.0 2.0 1.0 5.0 -89.0 8.0 10.0 6.0 7.0 4.0 2.0 0.0 0.0 6.0 3.0 0.0 9.0 
9.0 1.0 9.0 9.0 9.0 2.0 8.0 8.0 -98.0 1.0 2.0 10.0 4.0 7.0 7.0 1.0 2.0 2.0 2.0 5.0 
6.0 7.0 0.0 7.0 4.0 6.0 3.0 10.0 1.0 -81.0 1.0 5.0 7.0 1.0 5.0 5.0 2.0 4.0 7.0 0.0 
3.0 4.0 8.0 4.0 4.0 5.0 2.0 6.0 2.0 1.0 -78.0 9.0 9.0 0.0 0.0 7.0 8.0 1.0 2.0 3.0 
7.0 1.0 1.0 4.0 10.0 7.0 8.0 7.0 10.0 5.0 9.0 -112.0 4.0 7.0 2.0 9.0 3.0 7.0 10.0 1.0 
4.0 4.0 5.0 7.0 5.0 4.0 5.0 4.0 4.0 7.0 9.0 4.0 -93.0 0.0 1.0 8.0 8.0 8.0 0.0 6.0 
5.0 4.0 0.0 4.0 4.0 4.0 10.0 2.0 7.0 1.0 0.0 7.0 0.0 -86.0 9.0 6.0 6.0 7.0 1.0 9.0 
9.0 2.0 6.0 0.0 3.0 8.0 0.0 0.0 7.0 5.0 0.0 2.0 1.0 9.0 -82.0 5.0 6.0 4.0 5.0 10.0 
1.0 7.0 6.0 3.0 7.0 9.0 0.0 0.0 1.0 5.0 7.0 9.0 8.0 6.0 5.0 -81.0 0.0 1.0 4.0 2.0 
5.0 1.0 0.0 1.0 6.0 0.0 2.0 6.0 2.0 2.0 8.0 3.0 8.0 6.0 6.0 0.0 -68.0 1.0 7.0 4.0 
10.0 6.0 7.0 7.0 4.0 7.0 9.0 3.0 2.0 4.0 1.0 7.0 8.0 7.0 4.0 1.0 1.0 -99.0 2.0 9.0 
1.0 2.0 3.0 4.0 1.0 0.0 2.0 0.0 2.0 7.0 2.0 10.0 0.0 1.0 5.0 4.0 7.0 2.0 -58.0 5.0 
2.0 0.0 2.0 8.0 7.0 8.0 6.0 9.0 5.0 0.0 3.0 1.0 6.0 9.0 10.0 2.0 4.0 9.0 5.0 -96.0 

